
Gurobi 5.6.3 (win64) logging started 10/31/14 13:59:42


Gurobi 5.6.3 (win64) logging started 10/31/14 15:43:28

Optimize a model with 9 rows, 7 columns and 22 nonzeros
Found heuristic solution: objective 3
Presolve removed 9 rows and 7 columns
Presolve time: 0.02s

Explored 0 nodes (0 simplex iterations) in 0.07 seconds
Thread count was 1 (of 8 available processors)

Optimal solution found (tolerance 1.00e-04)
Best objective 3.000000000000e+00, best bound 3.000000000000e+00, gap 0.0%
Optimize a model with 9 rows, 7 columns and 22 nonzeros
Found heuristic solution: objective 3
Presolve removed 9 rows and 7 columns
Presolve time: 0.00s

Explored 0 nodes (0 simplex iterations) in 0.00 seconds
Thread count was 1 (of 8 available processors)

Optimal solution found (tolerance 1.00e-04)
Best objective 3.000000000000e+00, best bound 3.000000000000e+00, gap 0.0%
Optimize a model with 9 rows, 5 columns and 22 nonzeros
Found heuristic solution: objective 2
Presolve removed 9 rows and 5 columns
Presolve time: 0.00s

Explored 0 nodes (0 simplex iterations) in 0.00 seconds
Thread count was 1 (of 8 available processors)

Optimal solution found (tolerance 1.00e-04)
Best objective 2.000000000000e+00, best bound 2.000000000000e+00, gap 0.0%
Optimize a model with 9 rows, 5 columns and 22 nonzeros
Found heuristic solution: objective 2
Presolve removed 9 rows and 5 columns
Presolve time: 0.00s

Explored 0 nodes (0 simplex iterations) in 0.00 seconds
Thread count was 1 (of 8 available processors)

Optimal solution found (tolerance 1.00e-04)
Best objective 2.000000000000e+00, best bound 2.000000000000e+00, gap 0.0%
Optimize a model with 9 rows, 5 columns and 22 nonzeros
Found heuristic solution: objective 3
Presolve removed 9 rows and 5 columns
Presolve time: 0.00s

Explored 0 nodes (0 simplex iterations) in 0.00 seconds
Thread count was 1 (of 8 available processors)

Optimal solution found (tolerance 1.00e-04)
Best objective 3.000000000000e+00, best bound 3.000000000000e+00, gap 0.0%
Optimize a model with 9 rows, 5 columns and 22 nonzeros
Found heuristic solution: objective 3
Presolve removed 9 rows and 5 columns
Presolve time: 0.00s

Explored 0 nodes (0 simplex iterations) in 0.00 seconds
Thread count was 1 (of 8 available processors)

Optimal solution found (tolerance 1.00e-04)
Best objective 3.000000000000e+00, best bound 3.000000000000e+00, gap 0.0%
Optimize a model with 9 rows, 5 columns and 18 nonzeros
Found heuristic solution: objective -0
Presolve removed 9 rows and 5 columns
Presolve time: 0.00s

Explored 0 nodes (0 simplex iterations) in 0.00 seconds
Thread count was 1 (of 8 available processors)

Optimal solution found (tolerance 1.00e-04)
Best objective 8.881784197001e-16, best bound 8.881784197001e-16, gap 0.0%
Optimize a model with 9 rows, 5 columns and 18 nonzeros
Found heuristic solution: objective 1
Presolve removed 9 rows and 5 columns
Presolve time: 0.00s

Explored 0 nodes (0 simplex iterations) in 0.00 seconds
Thread count was 1 (of 8 available processors)

Optimal solution found (tolerance 1.00e-04)
Best objective 1.000000000000e+00, best bound 1.000000000000e+00, gap 0.0%
Optimize a model with 9 rows, 5 columns and 22 nonzeros
Found heuristic solution: objective 5
Presolve removed 9 rows and 5 columns
Presolve time: 0.00s

Explored 0 nodes (0 simplex iterations) in 0.00 seconds
Thread count was 1 (of 8 available processors)

Optimal solution found (tolerance 1.00e-04)
Best objective 5.000000000000e+00, best bound 5.000000000000e+00, gap 0.0%
Optimize a model with 9 rows, 5 columns and 22 nonzeros
Found heuristic solution: objective 1
Presolve removed 9 rows and 5 columns
Presolve time: 0.00s

Explored 0 nodes (0 simplex iterations) in 0.00 seconds
Thread count was 1 (of 8 available processors)

Optimal solution found (tolerance 1.00e-04)
Best objective 1.000000000000e+00, best bound 1.000000000000e+00, gap 0.0%
Optimize a model with 9 rows, 5 columns and 22 nonzeros
Found heuristic solution: objective 1
Presolve removed 9 rows and 5 columns
Presolve time: 0.00s

Explored 0 nodes (0 simplex iterations) in 0.00 seconds
Thread count was 1 (of 8 available processors)

Optimal solution found (tolerance 1.00e-04)
Best objective 1.000000000000e+00, best bound 1.000000000000e+00, gap 0.0%
Optimize a model with 9 rows, 5 columns and 22 nonzeros
Found heuristic solution: objective 5
Presolve removed 9 rows and 5 columns
Presolve time: 0.00s

Explored 0 nodes (0 simplex iterations) in 0.00 seconds
Thread count was 1 (of 8 available processors)

Optimal solution found (tolerance 1.00e-04)
Best objective 5.000000000000e+00, best bound 5.000000000000e+00, gap 0.0%
Optimize a model with 9 rows, 5 columns and 22 nonzeros
Found heuristic solution: objective 5
Presolve removed 9 rows and 5 columns
Presolve time: 0.00s

Explored 0 nodes (0 simplex iterations) in 0.00 seconds
Thread count was 1 (of 8 available processors)

Optimal solution found (tolerance 1.00e-04)
Best objective 5.000000000000e+00, best bound 5.000000000000e+00, gap 0.0%
Optimize a model with 9 rows, 5 columns and 22 nonzeros
Found heuristic solution: objective 5
Presolve removed 9 rows and 5 columns
Presolve time: 0.00s

Explored 0 nodes (0 simplex iterations) in 0.00 seconds
Thread count was 1 (of 8 available processors)

Optimal solution found (tolerance 1.00e-04)
Best objective 5.000000000000e+00, best bound 5.000000000000e+00, gap 0.0%

Gurobi 6.0.0 (win64) logging started 02/20/15 14:41:39


Gurobi 6.0.0 (win64) logging started 02/20/15 14:42:32


Gurobi 6.0.0 (win64) logging started 02/20/15 14:42:59


Gurobi 6.0.0 (win64) logging started 02/20/15 14:48:11


Gurobi 6.0.0 (win64) logging started 02/20/15 14:56:50


Gurobi 6.0.0 (win64) logging started 02/20/15 14:59:23


Gurobi 6.0.0 (win64) logging started 02/20/15 15:04:16


Gurobi 6.0.0 (win64) logging started 02/20/15 15:06:54


Gurobi 6.0.0 (win64) logging started 02/20/15 15:10:52


Gurobi 6.0.0 (win64) logging started 02/20/15 15:16:23


Gurobi 6.0.0 (win64) logging started 02/20/15 15:18:19


Gurobi 5.6.3 (win64) logging started 02/20/15 18:10:15


Gurobi 5.6.3 (win64) logging started 02/23/15 12:24:17


Gurobi 5.6.3 (win64) logging started 02/24/15 10:23:08


Gurobi 5.6.3 (win64) logging started 02/24/15 12:04:57


Gurobi 5.6.3 (win64) logging started 02/24/15 13:25:31


Gurobi 5.6.3 (win64) logging started 02/24/15 14:36:07


Gurobi 5.6.3 (win64) logging started 02/24/15 15:42:01


Gurobi 5.6.3 (win64) logging started 02/26/15 14:05:32


Gurobi 5.6.3 (win64) logging started 02/26/15 14:46:21


Gurobi 5.6.3 (win64) logging started 02/27/15 11:20:23


Gurobi 5.6.3 (win64) logging started 03/01/15 18:08:38


Gurobi 5.6.3 (win64) logging started 03/01/15 23:03:49


Gurobi 5.6.3 (win64) logging started 03/02/15 09:51:50


Gurobi 5.6.3 (win64) logging started 03/02/15 09:55:02


Gurobi 6.0.0 (win64) logging started 03/02/15 12:14:03


Gurobi 6.0.0 (win64) logging started 03/02/15 12:26:40


Gurobi 6.0.0 (win64) logging started 03/02/15 12:29:59


Gurobi 6.0.0 (win64) logging started 03/02/15 12:31:34


Gurobi 6.0.0 (win64) logging started 03/02/15 12:36:34


Gurobi 6.0.0 (win64) logging started 03/02/15 12:37:16


Gurobi 6.0.0 (win64) logging started 03/02/15 12:39:27


Gurobi 6.0.0 (win64) logging started 03/02/15 12:42:15


Gurobi 6.0.0 (win64) logging started 03/02/15 12:44:32


Gurobi 6.0.0 (win64) logging started 03/02/15 12:51:52


Gurobi 6.0.0 (win64) logging started 03/02/15 12:52:35


Gurobi 6.0.0 (win64) logging started 03/02/15 12:53:42


Gurobi 6.0.0 (win64) logging started 03/02/15 13:19:01

Optimize a model with 325195 rows, 217855 columns and 2013733 nonzeros
Coefficient statistics:
  Matrix range    [6e-03, 1e+04]
  Objective range [0e+00, 0e+00]
  Bounds range    [0e+00, 0e+00]
  RHS range       [1e+00, 1e+06]
Presolve removed 3394 rows and 62295 columns
Presolve time: 0.19s

Explored 0 nodes (0 simplex iterations) in 2.39 seconds
Thread count was 1 (of 4 available processors)

Model is infeasible
Best objective -, best bound -, gap -

Gurobi 6.0.0 (win64) logging started 03/02/15 13:22:59

Optimize a model with 325195 rows, 217855 columns and 2013733 nonzeros
Coefficient statistics:
  Matrix range    [6e-03, 1e+04]
  Objective range [1e+00, 1e+00]
  Bounds range    [0e+00, 0e+00]
  RHS range       [1e+00, 1e+06]
Presolve removed 3394 rows and 62295 columns
Presolve time: 0.18s

Explored 0 nodes (0 simplex iterations) in 2.27 seconds
Thread count was 1 (of 4 available processors)

Model is infeasible
Best objective -, best bound -, gap -
